Sat 19 May 19:12:03 CEST 2018
CPXPARAM_TimeLimit                               45
CPXPARAM_Threads                                 1
CPXPARAM_MIP_Strategy_CallbackReducedLP          0
Tried aggregator 3 times.
MIP Presolve eliminated 2885 rows and 2750 columns.
MIP Presolve modified 2974 coefficients.
Aggregator did 6781 substitutions.
Reduced MIP has 7867 rows, 6155 columns, and 17836 nonzeros.
Reduced MIP has 5588 binaries, 9 generals, 0 SOSs, and 764 indicators.
Presolve time = 0.07 sec. (145.32 ticks)
Probing changed sense of 66 constraints.
Probing time = 0.18 sec. (164.17 ticks)
Cover probing fixed 0 vars, tightened 4 bounds.
Tried aggregator 3 times.
MIP Presolve eliminated 2019 rows and 318 columns.
MIP Presolve modified 309 coefficients.
Aggregator did 3635 substitutions.
Reduced MIP has 2213 rows, 2202 columns, and 8193 nonzeros.
Reduced MIP has 1887 binaries, 315 generals, 0 SOSs, and 764 indicators.
Presolve time = 0.02 sec. (24.71 ticks)
Probing time = 0.05 sec. (37.24 ticks)
Tried aggregator 3 times.
Aggregator did 291 substitutions.
Reduced MIP has 1922 rows, 1911 columns, and 7611 nonzeros.
Reduced MIP has 1596 binaries, 315 generals, 0 SOSs, and 764 indicators.
Presolve time = 0.01 sec. (12.65 ticks)
Probing time = 0.00 sec. (4.09 ticks)
Clique table members: 30818.
MIP emphasis: balance optimality and feasibility.
MIP search method: dynamic search.
Parallel mode: none, using 1 thread.
Root relaxation solution time = 0.01 sec. (11.00 ticks)

        Nodes                                         Cuts/
   Node  Left     Objective  IInf  Best Integer    Best Bound    ItCnt     Gap

      0     0        3.0000   695                      3.0000      225         
      0     0        3.0000   660                Cliques: 580      420         
      0     0        3.0000   420                Cliques: 580      716         
      0     0        3.0000   387                Cliques: 580      887         
      0     0        3.0000   416                Cliques: 580     1156         
      0     0        3.0000    22                Impl Bds: 15     1509         
      0     0        3.0000   152                   Cuts: 580     1651         
*     0+    0                           35.0000        3.0000            91.43%
      0     2        3.0000   151       35.0000        3.0000     1651   91.43%
Elapsed time = 3.96 sec. (4454.92 ticks, tree = 0.01 MB, solutions = 1)
*    20+   20                           34.0000        3.0000            91.18%
     88    86       32.0000     6       34.0000        3.0000     3083   91.18%
*   100+   62                           32.0000        3.0000            90.62%
    101    62        3.0000    77       32.0000        3.0000     3891   90.62%
    150   111        3.0000    18       32.0000        3.0000     4996   90.62%
*   200+  100                           18.0000        3.0000            83.33%
    220   108       17.0000    66       18.0000        3.0000     7317   83.33%
*   251   101      integral     0       17.0000        3.0000     7830   82.35%
*   293    92      integral     0       16.0000        3.0000     9730   81.25%
    295    92       10.0000    45       16.0000        3.0000    10062   81.25%
*   310    85      integral     0       15.0000        3.0000    10556   80.00%
    322    77        3.0000   110       15.0000        3.0000    14265   80.00%
    330    77        3.0000   250       15.0000        3.0000    17508   80.00%
    339    86        8.5000   222       15.0000        3.0000    19834   80.00%
    355    88    infeasible             15.0000        5.0000    23119   66.67%
    418    72        cutoff             15.0000        9.0000    36408   40.00%
Elapsed time = 6.52 sec. (8038.88 ticks, tree = 0.11 MB, solutions = 7)
    487    54       12.0000   275       15.0000       12.0000    48051   20.00%
    563    23    infeasible             15.0000       14.0000    60360    6.67%
    622     6    infeasible             15.0000       14.0000    71473    6.67%

Clique cuts applied:  851
Implied bound cuts applied:  60

Root node processing (before b&c):
  Real time             =    3.95 sec. (4445.33 ticks)
Sequential b&c:
  Real time             =    4.87 sec. (6816.13 ticks)
                          ------------
Total (root+branch&cut) =    8.82 sec. (11261.46 ticks)
   | W
 L | 0 1 2 
----------
 0 | 8 . 7 
 1 | 8 1 7 
 2 | 8 4 2 
 3 | 3 4 2 
 4 | 3 4 2 
 5 | 3 4 2 
 6 | 3 4 2 
 7 | 3 4 2 
 8 | 3 4 2 
 9 | 3 4 2 
10 | 3 6 6 
11 | . 6 6 
12 | 5 5 5 
13 | 5 5 5 
14 | 5 5 5 
15 | . . . 
16 | . . . 
17 | . . . 
18 | . . . 
19 | . . . 
20 | . . . 
21 | . . . 
22 | . . . 
23 | . . . 
24 | . . . 
25 | . . . 
26 | . . . 
27 | . . . 
28 | . . . 
29 | . . . 
30 | . . . 
31 | . . . 
32 | . . . 
33 | . . . 
34 | . . . 

Boxes' corners:      (w,l)
    Box 1 is at 
        top left     (1,1)
        bottom right (1,1)

    Box 2 is at 
        top left     (2,2)
        bottom right (2,9)

    Box 3 is at 
        top left     (0,3)
        bottom right (0,10)

    Box 4 is at 
        top left     (1,2)
        bottom right (1,9)

    Box 5 is at 
        top left     (0,12)
        bottom right (2,14)

    Box 6 is at 
        top left     (1,10)
        bottom right (2,11)

    Box 7 is at 
        top left     (2,0)
        bottom right (2,1)

    Box 8 is at 
        top left     (0,0)
        bottom right (0,2)

    Roll length used: 15
In 8.89 seconds
